Route #1: 12 35 39 34 26 2
Route #2: 32 13 18 7 16 20 40
Route #3: 9 8 38 17 15 25 23 42
Route #4: 4 6 28 3 11 43 41
Route #5: 21 24 44 33 14 5
Route #6: 36 19 31 29 27
Route #7: 10 22 30 37 1
cost: 1217.7709902888232
